# Solution for model phototropism_srl_ilp
# Objective value = 3.2260965459424291e+00
Z_593_0_0 0
Z_593_0_1 0
Z_593_0_2 1
Z_593_0_3 0
Z_8_0_0 0
Z_8_0_1 0
Z_8_0_2 0
Z_8_0_3 1
Z_192_0_0 0
Z_192_0_1 0
Z_192_0_2 0
Z_192_0_3 1
Z_81_21_0 0
Z_81_21_1 0
Z_81_21_2 0
Z_81_21_3 0
Z_81_5_0 1
Z_81_5_1 0
Z_81_5_2 0
Z_81_5_3 0
Z_81_3_0 0
Z_81_3_1 1
Z_81_3_2 0
Z_81_3_3 0
Z_81_0_0 0
Z_81_0_1 0
Z_81_0_2 0
Z_81_0_3 0
Z_81_4_0 0
Z_81_4_1 0
Z_81_4_2 0
Z_81_4_3 1
Z_81_1_0 0
Z_81_1_1 0
Z_81_1_2 0
Z_81_1_3 0
Z_81_6_0 0
Z_81_6_1 0
Z_81_6_2 0
Z_81_6_3 0
Z_81_2_0 0
Z_81_2_1 0
Z_81_2_2 1
Z_81_2_3 0
Z_76_0_0 0
Z_76_0_1 0
Z_76_0_2 0
Z_76_0_3 1
Z_509_0_0 0
Z_509_0_1 0
Z_509_0_2 0
Z_509_0_3 1
Z_71_0_0 0
Z_71_0_1 0
Z_71_0_2 1
Z_71_0_3 0
